c 
c G(k,n,p) graph
c graph gen seed     : 690
c number of vertices : 50
c max number of edges: 625
c number of classes  : 2
c edge density       : 0.400000
c edge probability   : 0.800000
c data structure     : dense
c
c           Graph Stats
c number of vertices  : 50
c nonisolated vertices: 50
c number of edges     : 505
c edge density        : 0.412245
c max degree          : 24
c avg degree          : 20.20
c min degree          : 14
p col 50 505
e 1 2
e 1 3
e 1 5
e 1 8
e 1 14
e 1 15
e 1 16
e 1 19
e 1 20
e 1 21
e 1 23
e 1 24
e 1 26
e 1 28
e 1 32
e 1 38
e 1 40
e 1 42
e 1 45
e 1 47
e 1 48
e 1 49
e 1 50
e 2 4
e 2 6
e 2 7
e 2 9
e 2 12
e 2 13
e 2 17
e 2 18
e 2 25
e 2 27
e 2 29
e 2 30
e 2 31
e 2 34
e 2 35
e 2 39
e 2 41
e 2 43
e 2 44
e 3 4
e 3 6
e 3 7
e 3 10
e 3 11
e 3 12
e 3 13
e 3 17
e 3 18
e 3 25
e 3 27
e 3 30
e 3 31
e 3 33
e 3 34
e 3 36
e 3 37
e 3 39
e 3 41
e 3 43
e 3 44
e 3 46
e 4 5
e 4 8
e 4 15
e 4 16
e 4 19
e 4 21
e 4 22
e 4 23
e 4 24
e 4 28
e 4 38
e 4 42
e 4 45
e 4 47
e 4 48
e 4 49
e 4 50
e 5 6
e 5 9
e 5 10
e 5 12
e 5 17
e 5 18
e 5 25
e 5 29
e 5 30
e 5 33
e 5 34
e 5 35
e 5 36
e 5 37
e 5 39
e 5 41
e 5 43
e 5 46
e 6 8
e 6 14
e 6 15
e 6 16
e 6 20
e 6 22
e 6 23
e 6 24
e 6 26
e 6 28
e 6 32
e 6 38
e 6 40
e 6 42
e 6 48
e 6 49
e 7 8
e 7 15
e 7 16
e 7 19
e 7 20
e 7 21
e 7 22
e 7 23
e 7 26
e 7 28
e 7 38
e 7 40
e 7 42
e 7 48
e 7 49
e 7 50
e 8 10
e 8 11
e 8 12
e 8 13
e 8 17
e 8 18
e 8 25
e 8 29
e 8 30
e 8 31
e 8 33
e 8 34
e 8 36
e 8 37
e 8 41
e 8 43
e 8 44
e 8 46
e 9 14
e 9 15
e 9 16
e 9 20
e 9 21
e 9 22
e 9 23
e 9 24
e 9 26
e 9 32
e 9 38
e 9 40
e 9 42
e 9 47
e 9 48
e 9 49
e 9 50
e 10 15
e 10 16
e 10 19
e 10 20
e 10 21
e 10 23
e 10 24
e 10 26
e 10 28
e 10 32
e 10 38
e 10 40
e 10 42
e 10 47
e 10 48
e 10 49
e 10 50
e 11 14
e 11 15
e 11 16
e 11 19
e 11 20
e 11 21
e 11 22
e 11 23
e 11 24
e 11 26
e 11 28
e 11 32
e 11 38
e 11 40
e 11 42
e 11 45
e 11 47
e 11 48
e 11 50
e 12 14
e 12 15
e 12 16
e 12 19
e 12 21
e 12 22
e 12 23
e 12 28
e 12 32
e 12 38
e 12 40
e 12 45
e 12 47
e 12 48
e 12 50
e 13 14
e 13 15
e 13 16
e 13 19
e 13 22
e 13 23
e 13 24
e 13 26
e 13 38
e 13 42
e 13 45
e 13 47
e 13 48
e 13 49
e 13 50
e 14 25
e 14 27
e 14 29
e 14 30
e 14 33
e 14 34
e 14 35
e 14 36
e 14 43
e 14 44
e 14 46
e 15 17
e 15 18
e 15 30
e 15 31
e 15 33
e 15 34
e 15 35
e 15 36
e 15 43
e 15 46
e 16 17
e 16 18
e 16 27
e 16 30
e 16 33
e 16 34
e 16 35
e 16 36
e 16 39
e 16 41
e 16 43
e 16 44
e 16 46
e 17 19
e 17 20
e 17 22
e 17 23
e 17 24
e 17 26
e 17 28
e 17 32
e 17 38
e 17 40
e 17 45
e 17 47
e 17 49
e 17 50
e 18 19
e 18 20
e 18 21
e 18 22
e 18 23
e 18 28
e 18 32
e 18 38
e 18 45
e 18 48
e 18 49
e 19 25
e 19 27
e 19 29
e 19 31
e 19 33
e 19 34
e 19 35
e 19 36
e 19 37
e 19 39
e 19 43
e 19 44
e 19 46
e 20 25
e 20 27
e 20 29
e 20 30
e 20 31
e 20 33
e 20 34
e 20 35
e 20 36
e 20 37
e 20 39
e 20 41
e 20 43
e 20 44
e 20 46
e 21 25
e 21 27
e 21 29
e 21 30
e 21 31
e 21 33
e 21 35
e 21 36
e 21 37
e 21 39
e 21 41
e 21 44
e 21 46
e 22 25
e 22 29
e 22 33
e 22 34
e 22 35
e 22 37
e 22 41
e 22 43
e 22 44
e 22 46
e 23 25
e 23 27
e 23 29
e 23 30
e 23 31
e 23 33
e 23 34
e 23 35
e 23 36
e 23 39
e 23 41
e 23 44
e 24 27
e 24 29
e 24 30
e 24 33
e 24 35
e 24 36
e 24 37
e 24 44
e 24 46
e 25 26
e 25 28
e 25 32
e 25 38
e 25 40
e 25 42
e 25 45
e 25 47
e 25 48
e 25 49
e 25 50
e 26 27
e 26 29
e 26 30
e 26 31
e 26 33
e 26 34
e 26 35
e 26 36
e 26 39
e 26 41
e 26 44
e 26 46
e 27 38
e 27 40
e 27 42
e 27 45
e 27 47
e 27 48
e 27 49
e 27 50
e 28 29
e 28 30
e 28 31
e 28 33
e 28 35
e 28 36
e 28 37
e 28 39
e 28 41
e 28 43
e 28 44
e 28 46
e 29 32
e 29 38
e 29 40
e 29 42
e 29 45
e 29 47
e 29 48
e 29 50
e 30 32
e 30 38
e 30 40
e 30 42
e 30 45
e 30 47
e 30 48
e 30 49
e 30 50
e 31 38
e 31 40
e 31 47
e 31 49
e 32 33
e 32 34
e 32 35
e 32 36
e 32 37
e 32 39
e 32 41
e 32 44
e 32 46
e 33 38
e 33 40
e 33 42
e 33 47
e 33 48
e 33 49
e 33 50
e 34 38
e 34 40
e 34 42
e 34 45
e 34 47
e 34 48
e 34 49
e 34 50
e 35 40
e 35 45
e 35 47
e 35 48
e 35 50
e 36 38
e 36 40
e 36 45
e 36 48
e 36 49
e 36 50
e 37 38
e 37 42
e 37 45
e 37 48
e 37 49
e 38 41
e 38 43
e 38 44
e 38 46
e 39 40
e 39 42
e 39 45
e 39 47
e 39 48
e 39 49
e 39 50
e 40 41
e 40 43
e 40 44
e 40 46
e 41 42
e 41 45
e 41 47
e 41 48
e 41 49
e 41 50
e 42 43
e 42 44
e 42 46
e 43 45
e 43 47
e 43 48
e 43 49
e 43 50
e 44 45
e 44 47
e 44 48
e 44 49
e 44 50
e 45 46
e 46 47
e 46 48
e 46 50
